letting n =  10
letting blocks =  [[1, 5], [1, 9], [1, 10], [2, 2], [2, 8], [3, 5], [4, 1], [4, 2], [4, 5], [4, 8], [4, 10], [5, 2], [6, 3], [6, 5], [8, 2], [8, 4], [8, 7], [8, 8], [8, 9], [9, 2], [9, 10], [10, 1], [10, 4], [10, 8]]
